/* Objective function */
min: +464 C1 +513 C2 +654 C3 +867 C4 +352 C5 +416 C6 +690 C7 +791 C8 +995 C9 +682 C10 +388 C11 +685 C12;

/* Constraints */
+C1 +C2 +C3 +C4 = 75;
+C5 +C6 +C7 +C8 = 125;
+C9 +C10 +C11 +C12 = 100;
+C1 +C5 +C9 = 80;
+C2 +C6 +C10 = 65;
+C3 +C7 +C11 = 70;
+C4 +C8 +C12 = 85;
